benchmarks_CP/INST_36x36/20/inst36x36_20_54.dzn
S=6;
start=[|
-1,	-1,	-1,	-1,	-1,	-1,	-1,	-1,	-1,	-1,	-1,	-1,	1,	11,	-1,	33,	-1,	-1,	12,	-1,	-1,	-1,	-1,	-1,	-1,	13,	-1,	28,	-1,	-1,	-1,	-1,	-1,	-1,	-1,	9|
-1,	-1,	-1,	-1,	13,	-1,	30,	-1,	35,	-1,	-1,	-1,	-1,	-1,	-1,	-1,	-1,	-1,	-1,	-1,	-1,	-1,	-1,	-1,	-1,	-1,	-1,	32,	-1,	-1,	-1,	-1,	-1,	-1,	-1,	-1|
-1,	1,	-1,	-1,	-1,	-1,	-1,	-1,	-1,	14,	-1,	-1,	-1,	-1,	34,	-1,	-1,	-1,	29,	-1,	5,	9,	-1,	-1,	35,	22,	-1,	-1,	-1,	-1,	-1,	-1,	26,	-1,	-1,	33|
29,	-1,	-1,	-1,	-1,	-1,	-1,	-1,	24,	-1,	-1,	-1,	-1,	-1,	6,	-1,	-1,	-1,	-1,	-1,	-1,	-1,	11,	-1,	-1,	-1,	-1,	-1,	-1,	-1,	19,	32,	-1,	-1,	-1,	-1|
-1,	-1,	-1,	-1,	-1,	-1,	-1,	12,	-1,	-1,	15,	-1,	-1,	18,	7,	-1,	-1,	16,	-1,	-1,	-1,	-1,	17,	-1,	-1,	-1,	-1,	9,	-1,	4,	28,	-1,	-1,	-1,	-1,	-1|
-1,	-1,	-1,	-1,	-1,	-1,	-1,	-1,	-1,	-1,	-1,	-1,	-1,	-1,	-1,	-1,	-1,	-1,	-1,	34,	-1,	-1,	-1,	-1,	-1,	6,	-1,	-1,	-1,	-1,	1,	-1,	23,	-1,	-1,	24|
-1,	-1,	-1,	35,	-1,	-1,	-1,	-1,	-1,	-1,	-1,	28,	-1,	-1,	-1,	-1,	-1,	-1,	-1,	1,	22,	-1,	-1,	-1,	-1,	-1,	-1,	-1,	-1,	-1,	-1,	-1,	7,	27,	-1,	32|
-1,	11,	-1,	-1,	-1,	-1,	-1,	-1,	21,	13,	17,	4,	30,	-1,	-1,	-1,	18,	-1,	-1,	26,	20,	-1,	-1,	-1,	-1,	-1,	7,	-1,	-1,	-1,	-1,	-1,	-1,	-1,	-1,	-1|
-1,	-1,	-1,	-1,	-1,	-1,	-1,	-1,	-1,	-1,	-1,	-1,	-1,	-1,	9,	-1,	-1,	-1,	-1,	-1,	-1,	-1,	18,	-1,	-1,	-1,	-1,	-1,	-1,	-1,	-1,	-1,	-1,	3,	-1,	-1|
15,	-1,	-1,	-1,	-1,	-1,	33,	9,	-1,	8,	-1,	22,	35,	3,	-1,	-1,	-1,	-1,	24,	-1,	-1,	-1,	-1,	10,	-1,	12,	-1,	30,	-1,	-1,	-1,	31,	17,	-1,	-1,	20|
-1,	24,	-1,	-1,	-1,	-1,	-1,	-1,	14,	-1,	-1,	-1,	-1,	-1,	13,	-1,	20,	-1,	-1,	-1,	-1,	-1,	-1,	27,	-1,	-1,	-1,	-1,	35,	-1,	-1,	-1,	-1,	-1,	34,	-1|
-1,	-1,	-1,	-1,	21,	-1,	-1,	-1,	-1,	-1,	-1,	-1,	11,	-1,	-1,	-1,	-1,	-1,	-1,	-1,	-1,	13,	-1,	-1,	-1,	-1,	-1,	-1,	20,	-1,	-1,	25,	-1,	30,	-1,	-1|
25,	8,	-1,	-1,	-1,	-1,	-1,	-1,	-1,	-1,	-1,	-1,	-1,	-1,	-1,	-1,	-1,	-1,	-1,	-1,	-1,	-1,	-1,	-1,	21,	-1,	-1,	-1,	-1,	32,	-1,	-1,	13,	-1,	-1,	-1|
-1,	-1,	27,	-1,	16,	-1,	20,	-1,	-1,	-1,	-1,	-1,	-1,	15,	22,	-1,	-1,	11,	-1,	-1,	-1,	-1,	-1,	-1,	-1,	-1,	-1,	-1,	-1,	2,	-1,	-1,	-1,	-1,	-1,	-1|
-1,	-1,	30,	-1,	6,	-1,	-1,	-1,	-1,	34,	-1,	25,	-1,	-1,	-1,	9,	19,	-1,	-1,	-1,	-1,	-1,	-1,	-1,	-1,	-1,	15,	-1,	-1,	8,	22,	-1,	-1,	-1,	-1,	7|
-1,	26,	-1,	-1,	-1,	-1,	10,	-1,	-1,	2,	13,	-1,	-1,	-1,	-1,	-1,	-1,	-1,	-1,	-1,	-1,	-1,	4,	-1,	-1,	-1,	-1,	-1,	-1,	16,	-1,	-1,	-1,	-1,	-1,	25|
-1,	-1,	-1,	-1,	20,	-1,	-1,	-1,	-1,	-1,	-1,	-1,	4,	-1,	8,	-1,	-1,	2,	-1,	12,	-1,	-1,	-1,	-1,	-1,	-1,	-1,	-1,	-1,	-1,	9,	-1,	-1,	32,	-1,	-1|
-1,	14,	3,	-1,	22,	-1,	-1,	21,	-1,	-1,	-1,	-1,	-1,	26,	-1,	-1,	16,	-1,	-1,	-1,	17,	32,	6,	-1,	-1,	-1,	-1,	-1,	-1,	-1,	30,	5,	-1,	-1,	20,	-1|
-1,	-1,	23,	-1,	-1,	8,	-1,	-1,	-1,	-1,	-1,	24,	-1,	25,	-1,	-1,	-1,	-1,	6,	-1,	-1,	-1,	-1,	-1,	-1,	-1,	-1,	-1,	-1,	-1,	-1,	-1,	-1,	-1,	-1,	27|
11,	25,	12,	-1,	-1,	-1,	22,	17,	-1,	-1,	35,	-1,	29,	-1,	-1,	-1,	-1,	-1,	-1,	-1,	-1,	-1,	-1,	-1,	33,	-1,	-1,	-1,	-1,	-1,	-1,	-1,	-1,	-1,	-1,	-1|
-1,	-1,	18,	-1,	-1,	-1,	-1,	-1,	-1,	-1,	2,	-1,	8,	-1,	-1,	-1,	-1,	-1,	4,	-1,	-1,	-1,	-1,	-1,	-1,	-1,	-1,	-1,	-1,	-1,	-1,	-1,	-1,	-1,	-1,	-1|
-1,	-1,	-1,	6,	-1,	14,	-1,	-1,	25,	-1,	-1,	-1,	-1,	-1,	-1,	-1,	-1,	-1,	-1,	-1,	-1,	16,	7,	-1,	-1,	-1,	-1,	-1,	-1,	-1,	-1,	-1,	1,	5,	30,	-1|
-1,	-1,	-1,	-1,	30,	-1,	-1,	14,	-1,	-1,	-1,	-1,	34,	-1,	-1,	-1,	-1,	-1,	2,	11,	27,	-1,	-1,	-1,	7,	-1,	-1,	-1,	-1,	-1,	3,	-1,	-1,	22,	-1,	-1|
-1,	-1,	-1,	-1,	-1,	-1,	3,	-1,	-1,	-1,	-1,	-1,	-1,	2,	-1,	16,	-1,	-1,	-1,	-1,	9,	-1,	-1,	29,	-1,	14,	21,	-1,	-1,	34,	-1,	36,	-1,	7,	-1,	18|
-1,	27,	-1,	-1,	-1,	-1,	-1,	-1,	-1,	10,	-1,	35,	-1,	-1,	-1,	-1,	-1,	-1,	22,	-1,	-1,	-1,	-1,	-1,	-1,	-1,	-1,	-1,	-1,	-1,	-1,	-1,	-1,	-1,	-1,	-1|
-1,	6,	-1,	-1,	-1,	-1,	-1,	25,	-1,	-1,	-1,	2,	-1,	31,	17,	-1,	-1,	-1,	-1,	-1,	-1,	-1,	-1,	-1,	-1,	-1,	-1,	-1,	-1,	-1,	13,	-1,	-1,	-1,	-1,	35|
-1,	4,	-1,	-1,	-1,	-1,	-1,	-1,	8,	-1,	-1,	-1,	28,	6,	-1,	24,	-1,	-1,	-1,	-1,	-1,	-1,	15,	17,	13,	-1,	-1,	-1,	-1,	-1,	-1,	-1,	-1,	18,	-1,	-1|
-1,	-1,	-1,	-1,	-1,	-1,	-1,	-1,	-1,	-1,	-1,	18,	-1,	-1,	-1,	-1,	-1,	-1,	-1,	27,	-1,	-1,	-1,	-1,	-1,	-1,	-1,	-1,	15,	-1,	2,	3,	-1,	-1,	-1,	-1|
13,	-1,	-1,	-1,	-1,	-1,	29,	-1,	-1,	-1,	-1,	-1,	-1,	-1,	33,	-1,	-1,	-1,	-1,	32,	-1,	-1,	-1,	-1,	-1,	-1,	-1,	-1,	28,	-1,	-1,	-1,	-1,	-1,	-1,	-1|
-1,	5,	-1,	-1,	-1,	-1,	-1,	31,	-1,	-1,	-1,	19,	-1,	-1,	-1,	-1,	-1,	-1,	-1,	-1,	-1,	-1,	-1,	-1,	-1,	18,	6,	-1,	-1,	-1,	-1,	-1,	-1,	23,	-1,	15|
-1,	-1,	9,	-1,	-1,	35,	-1,	-1,	-1,	-1,	-1,	-1,	19,	-1,	-1,	-1,	8,	-1,	-1,	-1,	-1,	-1,	-1,	-1,	-1,	-1,	20,	-1,	-1,	-1,	32,	-1,	-1,	15,	-1,	-1|
-1,	-1,	6,	-1,	-1,	-1,	-1,	-1,	-1,	-1,	20,	-1,	-1,	-1,	-1,	-1,	11,	-1,	-1,	-1,	-1,	19,	-1,	-1,	-1,	-1,	-1,	-1,	-1,	17,	-1,	13,	-1,	-1,	35,	-1|
-1,	15,	-1,	-1,	-1,	-1,	-1,	-1,	-1,	-1,	-1,	14,	21,	-1,	-1,	-1,	-1,	-1,	-1,	8,	-1,	-1,	-1,	-1,	-1,	-1,	13,	-1,	24,	10,	-1,	27,	-1,	-1,	-1,	-1|
-1,	-1,	-1,	-1,	-1,	-1,	-1,	-1,	-1,	17,	-1,	-1,	-1,	-1,	-1,	-1,	-1,	-1,	-1,	-1,	-1,	-1,	-1,	-1,	-1,	-1,	-1,	-1,	-1,	-1,	-1,	30,	-1,	-1,	-1,	1|
-1,	-1,	-1,	-1,	-1,	-1,	-1,	-1,	-1,	18,	-1,	-1,	-1,	-1,	-1,	-1,	-1,	-1,	-1,	-1,	-1,	-1,	35,	-1,	-1,	-1,	-1,	22,	-1,	28,	-1,	8,	-1,	-1,	-1,	-1|
33,	-1,	-1,	25,	17,	-1,	24,	28,	29,	-1,	8,	-1,	-1,	27,	-1,	-1,	15,	20,	-1,	-1,	-1,	-1,	-1,	-1,	-1,	-1,	-1,	-1,	-1,	-1,	-1,	-1,	-1,	-1,	-1,	-1|];
